c Random generated cnf formula, satisfiable: false
p cnf 10 50
6 9 -4 0
-7 3 -1 0
-7 -6 -10 0
-9 3 10 0
-8 2 7 0
6 3 -10 0
-10 6 5 0
2 8 -9 0
-5 -2 1 0
-5 7 -3 0
-1 6 -10 0
9 2 -3 0
-8 -1 10 0
-10 8 7 0
10 4 3 0
-8 -1 7 0
-5 -4 -6 0
7 -8 -6 0
-5 -7 10 0
6 -3 -9 0
4 8 -6 0
-10 -8 -5 0
8 -5 -2 0
-2 1 10 0
7 6 2 0
-6 -1 -2 0
7 4 -5 0
8 10 3 0
9 -7 4 0
-1 8 -10 0
6 5 -7 0
-2 -5 7 0
-2 -9 4 0
3 -8 -6 0
-1 -8 2 0
-10 5 7 0
6 3 -1 0
-6 5 -3 0
3 -2 4 0
7 9 6 0
1 9 -2 0
-5 4 3 0
-1 4 -6 0
-9 7 -4 0
-9 2 6 0
3 4 -9 0
5 1 -7 0
8 6 4 0
-2 3 10 0
-1 -6 -10 0
